NAME : pr10.tsp
COMMENT : 10-city problem
TYPE : TSP 
DIMENSION : 10
EDGE_WEIGHT_TYPE : CEIL_2D
NODE_COORD_SECTION 
1  9.269000e+03 7.974000e+03 
2  1.746000e+03 4.342000e+04 
3  5.989200e+04 4.365700e+04 
4  2.430000e+02 7.858000e+04 
5  5.697700e+04 4.073600e+04 
6  6.547000e+04 6.292900e+04 
7  3.709400e+04 6.253000e+03 
8  2.201200e+04 2.980200e+04 
9  3.851900e+04 1.011000e+03 
10 9.859500e+04 1.581800e+04 
EOF 
